7 500000000000322
0 71428571428670 71428571428581 71428571428663 71428571428626 71428571428652 71428571428655
71428571428670 0 71428571428585 71428571428579 71428571428622 71428571428645 71428571428642
71428571428581 71428571428585 0 71428571428665 71428571428583 71428571428646 71428571428621
71428571428663 71428571428579 71428571428665 0 71428571428635 71428571428663 71428571428602
71428571428626 71428571428622 71428571428583 71428571428635 0 71428571428609 71428571428646
71428571428652 71428571428645 71428571428646 71428571428663 71428571428609 0 71428571428580
71428571428655 71428571428642 71428571428621 71428571428602 71428571428646 71428571428580 0
